
n_res = 6;
rcap = [97, 93, 98, 98, 833, 857];
rtype = [1, 1, 1, 1, 2, 2];
n_tasks = 50;
modes =  [{1, 2, 3}, {4, 5, 6}, {7, 8, 9}, {10, 11, 12}, {13, 14, 15}, {16, 17, 18}, {19, 20, 21}, {22, 23, 24}, {25, 26, 27}, {28, 29, 30}, {31, 32, 33}, {34, 35, 36}, {37, 38, 39}, {40, 41, 42}, {43, 44, 45}, {46, 47, 48}, {49, 50, 51}, {52, 53, 54}, {55, 56, 57}, {58, 59, 60}, {61, 62, 63}, {64, 65, 66}, {67, 68, 69}, {70, 71, 72}, {73, 74, 75}, {76, 77, 78}, {79, 80, 81}, {82, 83, 84}, {85, 86, 87}, {88, 89, 90}, {91, 92, 93}, {94, 95, 96}, {97, 98, 99}, {100, 101, 102}, {103, 104, 105}, {106, 107, 108}, {109, 110, 111}, {112, 113, 114}, {115, 116, 117}, {118, 119, 120}, {121, 122, 123}, {124, 125, 126}, {127, 128, 129}, {130, 131, 132}, {133, 134, 135}, {136, 137, 138}, {139, 140, 141}, {142, 143, 144}, {145, 146, 147}, {148, 149, 150}];
succ =  [{50, 49, 35, 26, 23, 13, 4}, {50, 44, 43, 29, 27, 25, 13, 9}, {49, 47, 46, 45, 44, 32, 31, 30, 29, 26, 25, 22, 21}, {48, 47, 45, 44, 37, 30, 27, 25, 21, 17}, {49, 47, 32, 31, 21, 11}, {46, 45, 44, 43, 42, 41, 36, 31, 30, 29, 28, 26}, {46, 41, 40, 34, 28, 22, 20}, {50, 48, 47, 45, 44, 43, 42, 36, 31, 26, 23}, {48, 46, 45, 32, 30, 24, 21}, {47, 44, 43, 42, 41, 40, 37, 32, 30, 29}, {46, 45, 44, 42, 38, 37, 36, 29, 25}, {48, 47, 44, 42, 41, 36, 31, 30, 29}, {46, 42, 41, 38, 33, 31, 24}, {48, 41, 40, 38, 36, 20}, {46, 43, 42, 41, 38, 37, 36, 29}, {48, 44, 39, 37, 36, 30}, {46, 43, 41, 32, 29}, {45, 41, 38, 36, 26}, {47, 43, 42, 40, 38, 37}, {47, 43, 42, 29}, {42, 41, 39, 38}, {43, 39, 38, 36}, {40, 37, 30}, {40, 37, 36}, {41, 40}, {40, 37}, {39, 36}, {48, 37}, {39}, {38}, {37}, {36}, {45}, {44}, {36}, {}, {}, {}, {}, {}, {}, {}, {}, {}, {}, {}, {}, {}, {}, {}];
n_opt = 150;
dur = [8, 11, 17, 8, 16, 20, 3, 17, 28, 4, 20, 27, 4, 10, 13, 1, 8, 20, 11, 15, 24, 1, 3, 24, 1, 5, 25, 10, 18, 28, 18, 23, 25, 2, 8, 19, 6, 16, 30, 4, 14, 25, 22, 23, 24, 5, 9, 10, 8, 9, 12, 4, 25, 27, 12, 13, 28, 7, 17, 26, 11, 20, 21, 2, 22, 26, 19, 23, 26, 1, 18, 27, 2, 6, 29, 21, 23, 30, 10, 15, 27, 6, 19, 23, 2, 5, 23, 19, 21, 29, 3, 8, 18, 2, 11, 20, 2, 11, 28, 8, 18, 25, 7, 21, 29, 8, 12, 16, 3, 18, 27, 2, 13, 25, 10, 16, 21, 6, 7, 13, 5, 9, 10, 15, 26, 28, 7, 8, 20, 10, 22, 28, 17, 24, 29, 21, 22, 27, 10, 11, 30, 6, 22, 24, 10, 11, 30, 7, 8, 24];
rreq = [|13, 10, 8, 25, 18, 9, 26, 26, 24, 13, 13, 12, 27, 24, 20, 28, 27, 26, 9, 8, 7, 24, 10, 5, 25, 22, 20, 8, 8, 7, 19, 17, 17, 13, 7, 6, 3, 1, 1, 17, 11, 6, 13, 11, 11, 19, 15, 8, 17, 14, 13, 29, 26, 26, 28, 16, 10, 25, 17, 14, 21, 16, 10, 28, 23, 15, 4, 3, 2, 25, 23, 21, 27, 14, 6, 24, 22, 22, 26, 15, 12, 15, 15, 14, 8, 7, 7, 22, 14, 8, 11, 10, 8, 7, 6, 5, 25, 21, 19, 20, 13, 4, 17, 13, 9, 22, 16, 11, 16, 8, 6, 23, 20, 8, 21, 20, 18, 24, 16, 9, 19, 12, 10, 12, 11, 9, 23, 20, 20, 18, 15, 14, 19, 14, 12, 20, 18, 18, 28, 28, 28, 8, 8, 8, 20, 15, 11, 20, 19, 18
 |7, 5, 4, 19, 19, 17, 19, 10, 5, 30, 16, 7, 5, 4, 4, 29, 26, 25, 25, 23, 23, 12, 10, 10, 19, 18, 18, 27, 24, 20, 10, 8, 6, 24, 20, 18, 22, 21, 19, 20, 18, 14, 27, 21, 15, 27, 21, 20, 14, 12, 9, 22, 16, 10, 20, 20, 19, 7, 7, 7, 18, 17, 17, 14, 7, 7, 13, 7, 4, 14, 13, 12, 12, 12, 12, 10, 10, 10, 13, 9, 7, 19, 18, 10, 24, 19, 16, 8, 6, 6, 26, 25, 25, 19, 17, 16, 18, 10, 7, 26, 24, 22, 28, 26, 23, 10, 7, 5, 24, 18, 9, 22, 18, 11, 15, 10, 10, 23, 21, 16, 4, 3, 2, 13, 11, 8, 15, 15, 14, 24, 19, 9, 19, 14, 11, 25, 17, 15, 29, 13, 11, 30, 29, 29, 7, 6, 6, 5, 5, 5
 |19, 13, 7, 13, 11, 9, 8, 5, 1, 22, 16, 3, 28, 27, 26, 26, 16, 11, 17, 17, 15, 17, 14, 13, 24, 24, 24, 16, 12, 10, 13, 10, 8, 12, 10, 9, 13, 12, 8, 27, 17, 14, 24, 22, 22, 22, 19, 18, 25, 20, 13, 24, 15, 8, 20, 19, 17, 16, 11, 6, 18, 12, 4, 9, 8, 6, 22, 20, 18, 16, 10, 8, 20, 13, 11, 29, 27, 27, 20, 17, 16, 12, 10, 9, 10, 9, 5, 22, 11, 7, 28, 25, 25, 20, 17, 16, 24, 21, 18, 20, 17, 12, 8, 5, 5, 15, 14, 14, 25, 18, 9, 29, 11, 2, 25, 22, 20, 25, 19, 16, 26, 23, 19, 24, 23, 23, 27, 21, 14, 17, 10, 4, 16, 14, 13, 15, 10, 5, 20, 15, 14, 28, 20, 17, 16, 12, 4, 15, 14, 14
 |22, 21, 20, 11, 6, 4, 27, 21, 4, 25, 17, 13, 22, 14, 11, 26, 13, 7, 22, 19, 17, 22, 15, 11, 17, 13, 12, 18, 17, 16, 25, 19, 13, 8, 8, 7, 25, 22, 19, 21, 15, 14, 17, 11, 10, 29, 29, 29, 16, 16, 16, 24, 21, 19, 20, 17, 16, 18, 8, 2, 13, 11, 6, 28, 25, 20, 27, 22, 17, 22, 21, 20, 25, 19, 3, 17, 7, 6, 12, 12, 10, 17, 17, 17, 5, 4, 4, 26, 25, 24, 12, 8, 1, 26, 22, 21, 20, 18, 8, 27, 26, 25, 17, 13, 8, 6, 5, 4, 15, 13, 10, 19, 13, 10, 10, 9, 9, 21, 20, 18, 9, 9, 6, 14, 11, 6, 9, 7, 7, 14, 9, 7, 21, 12, 7, 29, 27, 25, 15, 13, 13, 19, 12, 10, 24, 24, 24, 18, 17, 16
 |11, 7, 6, 5, 3, 3, 13, 6, 3, 7, 4, 3, 26, 20, 15, 25, 19, 13, 18, 13, 9, 12, 8, 5, 20, 17, 15, 25, 19, 12, 26, 22, 21, 25, 22, 19, 17, 8, 8, 26, 25, 24, 20, 14, 5, 24, 21, 20, 20, 9, 9, 11, 6, 1, 18, 15, 9, 22, 10, 7, 22, 19, 14, 25, 23, 22, 24, 17, 8, 15, 14, 13, 7, 5, 4, 22, 10, 6, 18, 11, 7, 24, 17, 8, 20, 17, 16, 17, 16, 16, 12, 11, 10, 17, 17, 16, 13, 10, 7, 14, 13, 13, 19, 15, 8, 12, 9, 9, 6, 6, 6, 20, 15, 15, 7, 3, 3, 14, 12, 11, 23, 22, 11, 24, 24, 24, 26, 26, 24, 15, 15, 15, 28, 16, 15, 28, 28, 26, 23, 17, 15, 19, 14, 11, 19, 15, 15, 14, 10, 5
 |28, 27, 26, 9, 6, 3, 18, 18, 18, 11, 10, 10, 29, 27, 27, 15, 7, 5, 25, 24, 24, 26, 24, 21, 15, 12, 11, 16, 12, 8, 16, 15, 14, 9, 8, 8, 11, 8, 7, 17, 11, 7, 21, 17, 12, 14, 12, 11, 24, 22, 20, 20, 19, 17, 9, 5, 2, 28, 28, 26, 7, 7, 5, 6, 6, 6, 26, 23, 19, 11, 11, 10, 21, 21, 20, 23, 17, 15, 19, 14, 12, 7, 6, 5, 11, 8, 7, 25, 21, 15, 26, 25, 22, 25, 22, 17, 20, 19, 19, 20, 19, 12, 27, 24, 22, 23, 16, 8, 18, 11, 10, 7, 7, 6, 26, 15, 6, 25, 20, 17, 16, 10, 6, 16, 11, 1, 21, 13, 11, 19, 16, 14, 12, 10, 7, 28, 24, 17, 27, 27, 27, 5, 2, 1, 24, 24, 21, 24, 19, 16|];